p cnf 608 2071
c input variables 16
c output variables 1
c literals 5708
-17 4 0
17 -4 8 0
-17 -8 0
-18 3 0
18 -3 4 7 8 0
-18 4 -8 0
-18 -7 0
18 -3 -4 7 -8 0
-18 -4 8 0
19 -18 0
-19 17 18 0
19 -17 0
-20 2 0
20 -2 4 6 8 0
-20 4 -8 0
-20 -6 0
20 -2 -4 6 -8 0
-20 -4 8 0
21 3 7 -20 0
-21 20 0
-21 3 -7 0
-21 -3 7 0
21 -3 -7 -20 0
22 -21 0
-22 19 21 0
22 -19 0
-23 1 0
23 -1 4 5 8 0
-23 4 -8 0
-23 -5 0
23 -1 -4 5 -8 0
-23 -4 8 0
24 3 7 -23 0
-24 23 0
-24 3 -7 0
-24 -3 7 0
24 -3 -7 -23 0
25 2 6 -24 0
-25 24 0
-25 2 -6 0
-25 -2 6 0
25 -2 -6 -24 0
26 -25 0
-26 22 25 0
26 -22 0
-27 26 0
27 -26 0
-28 0
-29 0
30 -29 0
-30 28 29 0
30 -28 0
-31 0
32 -31 0
-32 31 0
33 -32 0
-33 30 32 0
33 -30 0
-34 0
35 -34 0
-35 34 0
36 -35 0
-36 35 0
37 -36 0
-37 33 36 0
37 -33 0
-38 27 0
38 -27 -37 0
-38 37 0
39 -38 0
-39 27 38 0
39 -27 0
40 8 -12 0
-40 12 0
-40 -8 0
-41 11 0
41 7 8 -11 12 0
-41 8 -12 0
41 7 -8 -11 -12 0
-41 -8 12 0
-41 -7 0
42 -41 0
-42 40 41 0
42 -40 0
-43 10 0
43 6 8 -10 12 0
-43 8 -12 0
43 6 -8 -10 -12 0
-43 -8 12 0
-43 -6 0
44 7 11 -43 0
-44 43 0
-44 7 -11 0
-44 -7 11 0
44 -7 -11 -43 0
45 -44 0
-45 42 44 0
45 -42 0
-46 9 0
46 5 8 -9 12 0
-46 8 -12 0
46 5 -8 -9 -12 0
-46 -8 12 0
-46 -5 0
47 7 11 -46 0
-47 46 0
-47 7 -11 0
-47 -7 11 0
47 -7 -11 -46 0
48 6 10 -47 0
-48 47 0
-48 6 -10 0
-48 -6 10 0
48 -6 -10 -47 0
49 -48 0
-49 45 48 0
49 -45 0
50 8 -16 0
-50 16 0
-50 -8 0
-51 15 0
51 7 8 -15 16 0
-51 8 -16 0
51 7 -8 -15 -16 0
-51 -8 16 0
-51 -7 0
52 -51 0
-52 50 51 0
52 -50 0
-53 14 0
53 6 8 -14 16 0
-53 8 -16 0
53 6 -8 -14 -16 0
-53 -8 16 0
-53 -6 0
54 7 15 -53 0
-54 53 0
-54 7 -15 0
-54 -7 15 0
54 -7 -15 -53 0
55 -54 0
-55 52 54 0
55 -52 0
-56 13 0
56 5 8 -13 16 0
-56 8 -16 0
56 5 -8 -13 -16 0
-56 -8 16 0
-56 -5 0
57 7 15 -56 0
-57 56 0
-57 7 -15 0
-57 -7 15 0
57 -7 -15 -56 0
58 6 14 -57 0
-58 57 0
-58 6 -14 0
-58 -6 14 0
58 -6 -14 -57 0
59 -58 0
-59 55 58 0
59 -55 0
60 39 0
-60 -39 0
-61 4 0
61 -4 12 0
-61 -12 0
-62 3 0
62 -3 4 11 12 0
-62 4 -12 0
-62 -11 0
62 -3 -4 11 -12 0
-62 -4 12 0
63 -62 0
-63 61 62 0
63 -61 0
-64 2 0
64 -2 4 10 12 0
-64 4 -12 0
-64 -10 0
64 -2 -4 10 -12 0
-64 -4 12 0
65 3 11 -64 0
-65 64 0
-65 3 -11 0
-65 -3 11 0
65 -3 -11 -64 0
66 -65 0
-66 63 65 0
66 -63 0
-67 1 0
67 -1 4 9 12 0
-67 4 -12 0
-67 -9 0
67 -1 -4 9 -12 0
-67 -4 12 0
68 3 11 -67 0
-68 67 0
-68 3 -11 0
-68 -3 11 0
68 -3 -11 -67 0
69 2 10 -68 0
-69 68 0
-69 2 -10 0
-69 -2 10 0
69 -2 -10 -68 0
70 -69 0
-70 66 69 0
70 -66 0
-71 60 0
71 -60 -70 0
-71 70 0
-72 39 0
72 -39 71 0
-72 -71 0
-73 71 0
73 -71 0
-74 72 0
74 -72 73 0
-74 -73 0
-75 8 0
75 -8 12 0
-75 -12 0
-76 7 0
76 -7 8 11 12 0
-76 8 -12 0
-76 -11 0
76 -7 -8 11 -12 0
-76 -8 12 0
77 -76 0
-77 75 76 0
77 -75 0
-78 6 0
78 -6 8 10 12 0
-78 8 -12 0
-78 -10 0
78 -6 -8 10 -12 0
-78 -8 12 0
79 7 11 -78 0
-79 78 0
-79 7 -11 0
-79 -7 11 0
79 -7 -11 -78 0
80 -79 0
-80 77 79 0
80 -77 0
-81 5 0
81 -5 8 9 12 0
-81 8 -12 0
-81 -9 0
81 -5 -8 9 -12 0
-81 -8 12 0
82 7 11 -81 0
-82 81 0
-82 7 -11 0
-82 -7 11 0
82 -7 -11 -81 0
83 6 10 -82 0
-83 82 0
-83 6 -10 0
-83 -6 10 0
83 -6 -10 -82 0
84 -83 0
-84 80 83 0
84 -80 0
-85 74 0
85 -74 -84 0
-85 84 0
-86 72 0
86 -72 85 0
-86 -85 0
87 -85 0
-87 73 85 0
87 -73 0
88 86 0
-88 -86 0
-89 87 0
89 -87 -88 0
-89 88 0
-90 0
-91 0
92 -91 0
-92 90 91 0
92 -90 0
-93 0
94 -93 0
-94 93 0
95 -94 0
-95 92 94 0
95 -92 0
-96 0
97 -96 0
-97 96 0
98 -97 0
-98 97 0
99 -98 0
-99 95 98 0
99 -95 0
-100 89 0
100 -89 -99 0
-100 99 0
-101 86 0
101 -86 100 0
-101 -100 0
102 -100 0
-102 87 100 0
102 -87 0
-103 101 0
103 -101 -102 0
-103 102 0
104 12 -16 0
-104 16 0
-104 -12 0
-105 15 0
105 11 12 -15 16 0
-105 12 -16 0
105 11 -12 -15 -16 0
-105 -12 16 0
-105 -11 0
106 -105 0
-106 104 105 0
106 -104 0
-107 14 0
107 10 12 -14 16 0
-107 12 -16 0
107 10 -12 -14 -16 0
-107 -12 16 0
-107 -10 0
108 11 15 -107 0
-108 107 0
-108 11 -15 0
-108 -11 15 0
108 -11 -15 -107 0
109 -108 0
-109 106 108 0
109 -106 0
-110 13 0
110 9 12 -13 16 0
-110 12 -16 0
110 9 -12 -13 -16 0
-110 -12 16 0
-110 -9 0
111 11 15 -110 0
-111 110 0
-111 11 -15 0
-111 -11 15 0
111 -11 -15 -110 0
112 10 14 -111 0
-112 111 0
-112 10 -14 0
-112 -10 14 0
112 -10 -14 -111 0
113 -112 0
-113 109 112 0
113 -109 0
-114 103 0
114 -103 -113 0
-114 113 0
-115 101 0
115 -101 114 0
-115 -114 0
116 -114 0
-116 102 114 0
116 -102 0
117 115 0
-117 -115 0
118 116 -117 0
-118 117 0
-118 -116 0
-119 4 0
119 -4 16 0
-119 -16 0
-120 3 0
120 -3 4 15 16 0
-120 4 -16 0
-120 -15 0
120 -3 -4 15 -16 0
-120 -4 16 0
121 -120 0
-121 119 120 0
121 -119 0
-122 2 0
122 -2 4 14 16 0
-122 4 -16 0
-122 -14 0
122 -2 -4 14 -16 0
-122 -4 16 0
123 3 15 -122 0
-123 122 0
-123 3 -15 0
-123 -3 15 0
123 -3 -15 -122 0
124 -123 0
-124 121 123 0
124 -121 0
-125 1 0
125 -1 4 13 16 0
-125 4 -16 0
-125 -13 0
125 -1 -4 13 -16 0
-125 -4 16 0
126 3 15 -125 0
-126 125 0
-126 3 -15 0
-126 -3 15 0
126 -3 -15 -125 0
127 2 14 -126 0
-127 126 0
-127 2 -14 0
-127 -2 14 0
127 -2 -14 -126 0
128 -127 0
-128 124 127 0
128 -124 0
-129 118 0
129 -118 -128 0
-129 128 0
130 -129 0
-130 115 129 0
130 -115 0
131 -129 0
-131 116 129 0
131 -116 0
-132 130 0
132 -130 131 0
-132 -131 0
-133 8 0
133 -8 16 0
-133 -16 0
-134 7 0
134 -7 8 15 16 0
-134 8 -16 0
-134 -15 0
134 -7 -8 15 -16 0
-134 -8 16 0
135 -134 0
-135 133 134 0
135 -133 0
-136 6 0
136 -6 8 14 16 0
-136 8 -16 0
-136 -14 0
136 -6 -8 14 -16 0
-136 -8 16 0
137 7 15 -136 0
-137 136 0
-137 7 -15 0
-137 -7 15 0
137 -7 -15 -136 0
138 -137 0
-138 135 137 0
138 -135 0
-139 5 0
139 -5 8 13 16 0
-139 8 -16 0
-139 -13 0
139 -5 -8 13 -16 0
-139 -8 16 0
140 7 15 -139 0
-140 139 0
-140 7 -15 0
-140 -7 15 0
140 -7 -15 -139 0
141 6 14 -140 0
-141 140 0
-141 6 -14 0
-141 -6 14 0
141 -6 -14 -140 0
142 -141 0
-142 138 141 0
142 -138 0
-143 132 0
143 -132 -142 0
-143 142 0
144 -143 0
-144 130 143 0
144 -130 0
145 -143 0
-145 131 143 0
145 -131 0
146 144 0
-146 -144 0
-147 145 0
147 -145 -146 0
-147 146 0
-148 12 0
148 -12 16 0
-148 -16 0
-149 11 0
149 -11 12 15 16 0
-149 12 -16 0
-149 -15 0
149 -11 -12 15 -16 0
-149 -12 16 0
150 -149 0
-150 148 149 0
150 -148 0
-151 10 0
151 -10 12 14 16 0
-151 12 -16 0
-151 -14 0
151 -10 -12 14 -16 0
-151 -12 16 0
152 11 15 -151 0
-152 151 0
-152 11 -15 0
-152 -11 15 0
152 -11 -15 -151 0
153 -152 0
-153 150 152 0
153 -150 0
-154 9 0
154 -9 12 13 16 0
-154 12 -16 0
-154 -13 0
154 -9 -12 13 -16 0
-154 -12 16 0
155 11 15 -154 0
-155 154 0
-155 11 -15 0
-155 -11 15 0
155 -11 -15 -154 0
156 10 14 -155 0
-156 155 0
-156 10 -14 0
-156 -10 14 0
156 -10 -14 -155 0
157 -156 0
-157 153 156 0
157 -153 0
-158 147 0
158 -147 -157 0
-158 157 0
159 -158 0
-159 144 158 0
159 -144 0
160 -158 0
-160 145 158 0
160 -145 0
-161 159 0
161 -159 -160 0
-161 160 0
-162 0
-163 0
164 -163 0
-164 162 163 0
164 -162 0
-165 0
166 -165 0
-166 165 0
167 -166 0
-167 164 166 0
167 -164 0
-168 0
169 -168 0
-169 168 0
170 -169 0
-170 169 0
171 -170 0
-171 167 170 0
171 -167 0
-172 161 0
172 -161 -171 0
-172 171 0
173 -172 0
-173 159 172 0
173 -159 0
174 -172 0
-174 160 172 0
174 -160 0
175 173 0
-175 -173 0
176 174 -175 0
-176 175 0
-176 -174 0
177 -1 0
-177 1 0
178 -2 0
-178 2 0
179 -3 0
-179 3 0
180 -4 0
-180 4 0
-181 173 0
181 -173 174 0
-181 -174 0
182 -177 181 0
182 -5 -181 0
-182 177 181 0
-182 5 -181 0
183 -178 181 0
183 -6 -181 0
-183 178 181 0
-183 6 -181 0
184 -179 181 0
184 -7 -181 0
-184 179 181 0
-184 7 -181 0
185 -180 181 0
185 -8 -181 0
-185 180 181 0
-185 8 -181 0
186 -5 181 0
186 -177 -181 0
-186 5 181 0
-186 177 -181 0
187 -6 181 0
187 -178 -181 0
-187 6 181 0
-187 178 -181 0
188 -7 181 0
188 -179 -181 0
-188 7 181 0
-188 179 -181 0
189 -8 181 0
189 -180 -181 0
-189 8 181 0
-189 180 -181 0
-190 174 0
190 -174 -175 0
-190 175 0
191 -182 190 0
191 -9 -190 0
-191 182 190 0
-191 9 -190 0
192 -183 190 0
192 -10 -190 0
-192 183 190 0
-192 10 -190 0
193 -184 190 0
193 -11 -190 0
-193 184 190 0
-193 11 -190 0
194 -185 190 0
194 -12 -190 0
-194 185 190 0
-194 12 -190 0
195 -9 190 0
195 -182 -190 0
-195 9 190 0
-195 182 -190 0
196 -10 190 0
196 -183 -190 0
-196 10 190 0
-196 183 -190 0
197 -11 190 0
197 -184 -190 0
-197 11 190 0
-197 184 -190 0
198 -12 190 0
198 -185 -190 0
-198 12 190 0
-198 185 -190 0
-199 173 0
199 -173 -174 0
-199 174 0
200 -191 199 0
200 -13 -199 0
-200 191 199 0
-200 13 -199 0
201 -192 199 0
201 -14 -199 0
-201 192 199 0
-201 14 -199 0
202 -193 199 0
202 -15 -199 0
-202 193 199 0
-202 15 -199 0
203 -194 199 0
203 -16 -199 0
-203 194 199 0
-203 16 -199 0
204 -13 199 0
204 -191 -199 0
-204 13 199 0
-204 191 -199 0
205 -14 199 0
205 -192 -199 0
-205 14 199 0
-205 192 -199 0
206 -15 199 0
206 -193 -199 0
-206 15 199 0
-206 193 -199 0
207 -16 199 0
207 -194 -199 0
-207 16 199 0
-207 194 -199 0
-208 189 0
208 -189 198 0
-208 -198 0
-209 188 0
209 -188 189 197 198 0
-209 189 -198 0
-209 -197 0
209 -188 -189 197 -198 0
-209 -189 198 0
210 -209 0
-210 208 209 0
210 -208 0
-211 187 0
211 -187 189 196 198 0
-211 189 -198 0
-211 -196 0
211 -187 -189 196 -198 0
-211 -189 198 0
212 188 197 -211 0
-212 211 0
-212 188 -197 0
-212 -188 197 0
212 -188 -197 -211 0
213 -212 0
-213 210 212 0
213 -210 0
-214 186 0
214 -186 189 195 198 0
-214 189 -198 0
-214 -195 0
214 -186 -189 195 -198 0
-214 -189 198 0
215 188 197 -214 0
-215 214 0
-215 188 -197 0
-215 -188 197 0
215 -188 -197 -214 0
216 187 196 -215 0
-216 215 0
-216 187 -196 0
-216 -187 196 0
216 -187 -196 -215 0
217 -216 0
-217 213 216 0
217 -213 0
218 217 0
-218 -217 0
-219 217 0
219 -217 0
220 218 0
-220 -218 0
-221 219 0
221 -219 -220 0
-221 220 0
-222 0
-223 0
224 -223 0
-224 222 223 0
224 -222 0
-225 0
226 -225 0
-226 225 0
227 -226 0
-227 224 226 0
227 -224 0
-228 0
229 -228 0
-229 228 0
230 -229 0
-230 229 0
231 -230 0
-231 227 230 0
231 -227 0
-232 221 0
232 -221 -231 0
-232 231 0
-233 218 0
233 -218 232 0
-233 -232 0
234 -232 0
-234 219 232 0
234 -219 0
-235 233 0
235 -233 -234 0
-235 234 0
236 198 -207 0
-236 207 0
-236 -198 0
-237 206 0
237 197 198 -206 207 0
-237 198 -207 0
237 197 -198 -206 -207 0
-237 -198 207 0
-237 -197 0
238 -237 0
-238 236 237 0
238 -236 0
-239 205 0
239 196 198 -205 207 0
-239 198 -207 0
239 196 -198 -205 -207 0
-239 -198 207 0
-239 -196 0
240 197 206 -239 0
-240 239 0
-240 197 -206 0
-240 -197 206 0
240 -197 -206 -239 0
241 -240 0
-241 238 240 0
241 -238 0
-242 204 0
242 195 198 -204 207 0
-242 198 -207 0
242 195 -198 -204 -207 0
-242 -198 207 0
-242 -195 0
243 197 206 -242 0
-243 242 0
-243 197 -206 0
-243 -197 206 0
243 -197 -206 -242 0
244 196 205 -243 0
-244 243 0
-244 196 -205 0
-244 -196 205 0
244 -196 -205 -243 0
245 -244 0
-245 241 244 0
245 -241 0
-246 235 0
246 -235 -245 0
-246 245 0
-247 233 0
247 -233 246 0
-247 -246 0
248 -246 0
-248 234 246 0
248 -234 0
-249 247 0
249 -247 248 0
-249 -248 0
-250 189 0
250 -189 207 0
-250 -207 0
-251 188 0
251 -188 189 206 207 0
-251 189 -207 0
-251 -206 0
251 -188 -189 206 -207 0
-251 -189 207 0
252 -251 0
-252 250 251 0
252 -250 0
-253 187 0
253 -187 189 205 207 0
-253 189 -207 0
-253 -205 0
253 -187 -189 205 -207 0
-253 -189 207 0
254 188 206 -253 0
-254 253 0
-254 188 -206 0
-254 -188 206 0
254 -188 -206 -253 0
255 -254 0
-255 252 254 0
255 -252 0
-256 186 0
256 -186 189 204 207 0
-256 189 -207 0
-256 -204 0
256 -186 -189 204 -207 0
-256 -189 207 0
257 188 206 -256 0
-257 256 0
-257 188 -206 0
-257 -188 206 0
257 -188 -206 -256 0
258 187 205 -257 0
-258 257 0
-258 187 -205 0
-258 -187 205 0
258 -187 -205 -257 0
259 -258 0
-259 255 258 0
259 -255 0
-260 249 0
260 -249 -259 0
-260 259 0
261 -260 0
-261 247 260 0
261 -247 0
262 -260 0
-262 248 260 0
262 -248 0
263 261 0
-263 -261 0
-264 262 0
264 -262 -263 0
-264 263 0
-265 198 0
265 -198 207 0
-265 -207 0
-266 197 0
266 -197 198 206 207 0
-266 198 -207 0
-266 -206 0
266 -197 -198 206 -207 0
-266 -198 207 0
267 -266 0
-267 265 266 0
267 -265 0
-268 196 0
268 -196 198 205 207 0
-268 198 -207 0
-268 -205 0
268 -196 -198 205 -207 0
-268 -198 207 0
269 197 206 -268 0
-269 268 0
-269 197 -206 0
-269 -197 206 0
269 -197 -206 -268 0
270 -269 0
-270 267 269 0
270 -267 0
-271 195 0
271 -195 198 204 207 0
-271 198 -207 0
-271 -204 0
271 -195 -198 204 -207 0
-271 -198 207 0
272 197 206 -271 0
-272 271 0
-272 197 -206 0
-272 -197 206 0
272 -197 -206 -271 0
273 196 205 -272 0
-273 272 0
-273 196 -205 0
-273 -196 205 0
273 -196 -205 -272 0
274 -273 0
-274 270 273 0
274 -270 0
-275 264 0
275 -264 -274 0
-275 274 0
276 -275 0
-276 261 275 0
276 -261 0
277 -275 0
-277 262 275 0
277 -262 0
-278 276 0
278 -276 -277 0
-278 277 0
-279 0
-280 0
281 -280 0
-281 279 280 0
281 -279 0
-282 0
283 -282 0
-283 282 0
284 -283 0
-284 281 283 0
284 -281 0
-285 0
286 -285 0
-286 285 0
287 -286 0
-287 286 0
288 -287 0
-288 284 287 0
288 -284 0
-289 278 0
289 -278 -288 0
-289 288 0
290 -289 0
-290 276 289 0
290 -276 0
291 -289 0
-291 277 289 0
291 -277 0
-292 290 0
292 -290 291 0
-292 -291 0
293 -186 0
-293 186 0
294 -187 0
-294 187 0
295 -188 0
-295 188 0
296 -189 0
-296 189 0
297 290 0
-297 -290 0
-298 291 0
298 -291 -297 0
-298 297 0
299 -293 298 0
299 -195 -298 0
-299 293 298 0
-299 195 -298 0
300 -294 298 0
300 -196 -298 0
-300 294 298 0
-300 196 -298 0
301 -295 298 0
301 -197 -298 0
-301 295 298 0
-301 197 -298 0
302 -296 298 0
302 -198 -298 0
-302 296 298 0
-302 198 -298 0
303 -195 298 0
303 -293 -298 0
-303 195 298 0
-303 293 -298 0
304 -196 298 0
304 -294 -298 0
-304 196 298 0
-304 294 -298 0
305 -197 298 0
305 -295 -298 0
-305 197 298 0
-305 295 -298 0
306 -198 298 0
306 -296 -298 0
-306 198 298 0
-306 296 -298 0
-307 290 0
307 -290 -291 0
-307 291 0
308 -299 307 0
308 -204 -307 0
-308 299 307 0
-308 204 -307 0
309 -300 307 0
309 -205 -307 0
-309 300 307 0
-309 205 -307 0
310 -301 307 0
310 -206 -307 0
-310 301 307 0
-310 206 -307 0
311 -302 307 0
311 -207 -307 0
-311 302 307 0
-311 207 -307 0
312 -204 307 0
312 -299 -307 0
-312 204 307 0
-312 299 -307 0
313 -205 307 0
313 -300 -307 0
-313 205 307 0
-313 300 -307 0
314 -206 307 0
314 -301 -307 0
-314 206 307 0
-314 301 -307 0
315 -207 307 0
315 -302 -307 0
-315 207 307 0
-315 302 -307 0
-316 306 0
316 -306 315 0
-316 -315 0
-317 305 0
317 -305 306 314 315 0
-317 306 -315 0
-317 -314 0
317 -305 -306 314 -315 0
-317 -306 315 0
318 -317 0
-318 316 317 0
318 -316 0
-319 304 0
319 -304 306 313 315 0
-319 306 -315 0
-319 -313 0
319 -304 -306 313 -315 0
-319 -306 315 0
320 305 314 -319 0
-320 319 0
-320 305 -314 0
-320 -305 314 0
320 -305 -314 -319 0
321 -320 0
-321 318 320 0
321 -318 0
-322 303 0
322 -303 306 312 315 0
-322 306 -315 0
-322 -312 0
322 -303 -306 312 -315 0
-322 -306 315 0
323 305 314 -322 0
-323 322 0
-323 305 -314 0
-323 -305 314 0
323 -305 -314 -322 0
324 304 313 -323 0
-324 323 0
-324 304 -313 0
-324 -304 313 0
324 -304 -313 -323 0
325 -324 0
-325 321 324 0
325 -321 0
-326 325 0
326 -325 0
327 0
-328 326 0
328 -326 -327 0
-328 327 0
-329 0
-330 0
331 -330 0
-331 329 330 0
331 -329 0
-332 0
333 -332 0
-333 332 0
334 -333 0
-334 331 333 0
334 -331 0
-335 0
336 -335 0
-336 335 0
337 -336 0
-337 336 0
338 -337 0
-338 334 337 0
338 -334 0
-339 328 0
339 -328 -338 0
-339 338 0
340 -339 0
-340 326 339 0
340 -326 0
341 -339 0
-341 327 339 0
341 -327 0
342 340 0
-342 -340 0
-343 341 0
343 -341 -342 0
-343 342 0
344 -303 0
-344 303 0
345 -304 0
-345 304 0
346 -305 0
-346 305 0
347 -306 0
-347 306 0
-348 340 0
348 -340 -341 0
-348 341 0
349 -344 348 0
349 -312 -348 0
-349 344 348 0
-349 312 -348 0
350 -345 348 0
350 -313 -348 0
-350 345 348 0
-350 313 -348 0
351 -346 348 0
351 -314 -348 0
-351 346 348 0
-351 314 -348 0
352 -347 348 0
352 -315 -348 0
-352 347 348 0
-352 315 -348 0
353 -312 348 0
353 -344 -348 0
-353 312 348 0
-353 344 -348 0
354 -313 348 0
354 -345 -348 0
-354 313 348 0
-354 345 -348 0
355 -314 348 0
355 -346 -348 0
-355 314 348 0
-355 346 -348 0
356 -315 348 0
356 -347 -348 0
-356 315 348 0
-356 347 -348 0
357 4 -8 0
-357 8 0
-357 -4 0
-358 7 0
358 3 4 -7 8 0
-358 4 -8 0
358 3 -4 -7 -8 0
-358 -4 8 0
-358 -3 0
359 -358 0
-359 357 358 0
359 -357 0
-360 6 0
360 2 4 -6 8 0
-360 4 -8 0
360 2 -4 -6 -8 0
-360 -4 8 0
-360 -2 0
361 3 7 -360 0
-361 360 0
-361 3 -7 0
-361 -3 7 0
361 -3 -7 -360 0
362 -361 0
-362 359 361 0
362 -359 0
-363 5 0
363 1 4 -5 8 0
-363 4 -8 0
363 1 -4 -5 -8 0
-363 -4 8 0
-363 -1 0
364 3 7 -363 0
-364 363 0
-364 3 -7 0
-364 -3 7 0
364 -3 -7 -363 0
365 2 6 -364 0
-365 364 0
-365 2 -6 0
-365 -2 6 0
365 -2 -6 -364 0
366 -365 0
-366 362 365 0
366 -362 0
-367 366 0
367 -366 0
-368 37 0
368 -37 -367 0
-368 367 0
369 -368 0
-369 367 368 0
369 -367 0
370 369 0
-370 -369 0
371 4 -12 0
-371 12 0
-371 -4 0
-372 11 0
372 3 4 -11 12 0
-372 4 -12 0
372 3 -4 -11 -12 0
-372 -4 12 0
-372 -3 0
373 -372 0
-373 371 372 0
373 -371 0
-374 10 0
374 2 4 -10 12 0
-374 4 -12 0
374 2 -4 -10 -12 0
-374 -4 12 0
-374 -2 0
375 3 11 -374 0
-375 374 0
-375 3 -11 0
-375 -3 11 0
375 -3 -11 -374 0
376 -375 0
-376 373 375 0
376 -373 0
-377 9 0
377 1 4 -9 12 0
-377 4 -12 0
377 1 -4 -9 -12 0
-377 -4 12 0
-377 -1 0
378 3 11 -377 0
-378 377 0
-378 3 -11 0
-378 -3 11 0
378 -3 -11 -377 0
379 2 10 -378 0
-379 378 0
-379 2 -10 0
-379 -2 10 0
379 -2 -10 -378 0
380 -379 0
-380 376 379 0
380 -376 0
-381 370 0
381 -370 -380 0
-381 380 0
-382 369 0
382 -369 381 0
-382 -381 0
-383 381 0
383 -381 0
-384 382 0
384 -382 383 0
-384 -383 0
-385 49 0
385 -49 -384 0
-385 384 0
-386 382 0
386 -382 385 0
-386 -385 0
387 -385 0
-387 383 385 0
387 -383 0
388 386 0
-388 -386 0
-389 387 0
389 -387 -388 0
-389 388 0
-390 99 0
390 -99 -389 0
-390 389 0
-391 386 0
391 -386 390 0
-391 -390 0
392 -390 0
-392 387 390 0
392 -387 0
-393 391 0
393 -391 -392 0
-393 392 0
-394 157 0
394 -157 -393 0
-394 393 0
-395 391 0
395 -391 394 0
-395 -394 0
396 -394 0
-396 392 394 0
396 -392 0
397 395 0
-397 -395 0
398 396 -397 0
-398 397 0
-398 -396 0
399 4 -16 0
-399 16 0
-399 -4 0
-400 15 0
400 3 4 -15 16 0
-400 4 -16 0
400 3 -4 -15 -16 0
-400 -4 16 0
-400 -3 0
401 -400 0
-401 399 400 0
401 -399 0
-402 14 0
402 2 4 -14 16 0
-402 4 -16 0
402 2 -4 -14 -16 0
-402 -4 16 0
-402 -2 0
403 3 15 -402 0
-403 402 0
-403 3 -15 0
-403 -3 15 0
403 -3 -15 -402 0
404 -403 0
-404 401 403 0
404 -401 0
-405 13 0
405 1 4 -13 16 0
-405 4 -16 0
405 1 -4 -13 -16 0
-405 -4 16 0
-405 -1 0
406 3 15 -405 0
-406 405 0
-406 3 -15 0
-406 -3 15 0
406 -3 -15 -405 0
407 2 14 -406 0
-407 406 0
-407 2 -14 0
-407 -2 14 0
407 -2 -14 -406 0
408 -407 0
-408 404 407 0
408 -404 0
-409 398 0
409 -398 -408 0
-409 408 0
410 -409 0
-410 395 409 0
410 -395 0
411 -409 0
-411 396 409 0
411 -396 0
-412 410 0
412 -410 411 0
-412 -411 0
-413 59 0
413 -59 -412 0
-413 412 0
414 -413 0
-414 410 413 0
414 -410 0
415 -413 0
-415 411 413 0
415 -411 0
416 414 0
-416 -414 0
-417 415 0
417 -415 -416 0
-417 416 0
-418 113 0
418 -113 -417 0
-418 417 0
419 -418 0
-419 414 418 0
419 -414 0
420 -418 0
-420 415 418 0
420 -415 0
-421 419 0
421 -419 -420 0
-421 420 0
-422 171 0
422 -171 -421 0
-422 421 0
423 -422 0
-423 419 422 0
423 -419 0
424 -422 0
-424 420 422 0
424 -420 0
-425 423 0
425 -423 424 0
-425 -424 0
426 -1 425 0
426 -5 -425 0
-426 1 425 0
-426 5 -425 0
427 -2 425 0
427 -6 -425 0
-427 2 425 0
-427 6 -425 0
428 -3 425 0
428 -7 -425 0
-428 3 425 0
-428 7 -425 0
429 -4 425 0
429 -8 -425 0
-429 4 425 0
-429 8 -425 0
430 -5 425 0
430 -1 -425 0
-430 5 425 0
-430 1 -425 0
431 -6 425 0
431 -2 -425 0
-431 6 425 0
-431 2 -425 0
432 -7 425 0
432 -3 -425 0
-432 7 425 0
-432 3 -425 0
433 -8 425 0
433 -4 -425 0
-433 8 425 0
-433 4 -425 0
434 423 0
-434 -423 0
-435 424 0
435 -424 -434 0
-435 434 0
436 -426 435 0
436 -9 -435 0
-436 426 435 0
-436 9 -435 0
437 -427 435 0
437 -10 -435 0
-437 427 435 0
-437 10 -435 0
438 -428 435 0
438 -11 -435 0
-438 428 435 0
-438 11 -435 0
439 -429 435 0
439 -12 -435 0
-439 429 435 0
-439 12 -435 0
440 -9 435 0
440 -426 -435 0
-440 9 435 0
-440 426 -435 0
441 -10 435 0
441 -427 -435 0
-441 10 435 0
-441 427 -435 0
442 -11 435 0
442 -428 -435 0
-442 11 435 0
-442 428 -435 0
443 -12 435 0
443 -429 -435 0
-443 12 435 0
-443 429 -435 0
444 -430 0
-444 430 0
445 -431 0
-445 431 0
446 -432 0
-446 432 0
447 -433 0
-447 433 0
-448 423 0
448 -423 -424 0
-448 424 0
449 448 0
-449 -448 0
450 -436 449 0
450 -13 -449 0
-450 436 449 0
-450 13 -449 0
451 -437 449 0
451 -14 -449 0
-451 437 449 0
-451 14 -449 0
452 -438 449 0
452 -15 -449 0
-452 438 449 0
-452 15 -449 0
453 -439 449 0
453 -16 -449 0
-453 439 449 0
-453 16 -449 0
454 -13 449 0
454 -436 -449 0
-454 13 449 0
-454 436 -449 0
455 -14 449 0
455 -437 -449 0
-455 14 449 0
-455 437 -449 0
456 -15 449 0
456 -438 -449 0
-456 15 449 0
-456 438 -449 0
457 -16 449 0
457 -439 -449 0
-457 16 449 0
-457 439 -449 0
458 -444 449 0
458 -440 -449 0
-458 444 449 0
-458 440 -449 0
459 -445 449 0
459 -441 -449 0
-459 445 449 0
-459 441 -449 0
460 -446 449 0
460 -442 -449 0
-460 446 449 0
-460 442 -449 0
461 -447 449 0
461 -443 -449 0
-461 447 449 0
-461 443 -449 0
462 -440 449 0
462 -444 -449 0
-462 440 449 0
-462 444 -449 0
463 -441 449 0
463 -445 -449 0
-463 441 449 0
-463 445 -449 0
464 -442 449 0
464 -446 -449 0
-464 442 449 0
-464 446 -449 0
465 -443 449 0
465 -447 -449 0
-465 443 449 0
-465 447 -449 0
466 453 -461 0
-466 461 0
-466 -453 0
-467 460 0
467 452 453 -460 461 0
-467 453 -461 0
467 452 -453 -460 -461 0
-467 -453 461 0
-467 -452 0
468 -467 0
-468 466 467 0
468 -466 0
-469 459 0
469 451 453 -459 461 0
-469 453 -461 0
469 451 -453 -459 -461 0
-469 -453 461 0
-469 -451 0
470 452 460 -469 0
-470 469 0
-470 452 -460 0
-470 -452 460 0
470 -452 -460 -469 0
471 -470 0
-471 468 470 0
471 -468 0
-472 458 0
472 450 453 -458 461 0
-472 453 -461 0
472 450 -453 -458 -461 0
-472 -453 461 0
-472 -450 0
473 452 460 -472 0
-473 472 0
-473 452 -460 0
-473 -452 460 0
473 -452 -460 -472 0
474 451 459 -473 0
-474 473 0
-474 451 -459 0
-474 -451 459 0
474 -451 -459 -473 0
475 -474 0
-475 471 474 0
475 -471 0
-476 475 0
476 -475 0
-477 0
-478 0
479 -478 0
-479 477 478 0
479 -477 0
-480 0
481 -480 0
-481 480 0
482 -481 0
-482 479 481 0
482 -479 0
-483 0
484 -483 0
-484 483 0
485 -484 0
-485 484 0
486 -485 0
-486 482 485 0
486 -482 0
-487 476 0
487 -476 -486 0
-487 486 0
488 -487 0
-488 476 487 0
488 -476 0
489 488 0
-489 -488 0
490 453 -465 0
-490 465 0
-490 -453 0
-491 464 0
491 452 453 -464 465 0
-491 453 -465 0
491 452 -453 -464 -465 0
-491 -453 465 0
-491 -452 0
492 -491 0
-492 490 491 0
492 -490 0
-493 463 0
493 451 453 -463 465 0
-493 453 -465 0
493 451 -453 -463 -465 0
-493 -453 465 0
-493 -451 0
494 452 464 -493 0
-494 493 0
-494 452 -464 0
-494 -452 464 0
494 -452 -464 -493 0
495 -494 0
-495 492 494 0
495 -492 0
-496 462 0
496 450 453 -462 465 0
-496 453 -465 0
496 450 -453 -462 -465 0
-496 -453 465 0
-496 -450 0
497 452 464 -496 0
-497 496 0
-497 452 -464 0
-497 -452 464 0
497 -452 -464 -496 0
498 451 463 -497 0
-498 497 0
-498 451 -463 0
-498 -451 463 0
498 -451 -463 -497 0
499 -498 0
-499 495 498 0
499 -495 0
-500 489 0
500 -489 -499 0
-500 499 0
-501 488 0
501 -488 500 0
-501 -500 0
-502 500 0
502 -500 0
-503 501 0
503 -501 502 0
-503 -502 0
504 461 -465 0
-504 465 0
-504 -461 0
-505 464 0
505 460 461 -464 465 0
-505 461 -465 0
505 460 -461 -464 -465 0
-505 -461 465 0
-505 -460 0
506 -505 0
-506 504 505 0
506 -504 0
-507 463 0
507 459 461 -463 465 0
-507 461 -465 0
507 459 -461 -463 -465 0
-507 -461 465 0
-507 -459 0
508 460 464 -507 0
-508 507 0
-508 460 -464 0
-508 -460 464 0
508 -460 -464 -507 0
509 -508 0
-509 506 508 0
509 -506 0
-510 462 0
510 458 461 -462 465 0
-510 461 -465 0
510 458 -461 -462 -465 0
-510 -461 465 0
-510 -458 0
511 460 464 -510 0
-511 510 0
-511 460 -464 0
-511 -460 464 0
511 -460 -464 -510 0
512 459 463 -511 0
-512 511 0
-512 459 -463 0
-512 -459 463 0
512 -459 -463 -511 0
513 -512 0
-513 509 512 0
513 -509 0
-514 503 0
514 -503 -513 0
-514 513 0
-515 501 0
515 -501 514 0
-515 -514 0
516 -514 0
-516 502 514 0
516 -502 0
517 515 0
-517 -515 0
-518 516 0
518 -516 -517 0
-518 517 0
-519 0
-520 0
521 -520 0
-521 519 520 0
521 -519 0
-522 0
523 -522 0
-523 522 0
524 -523 0
-524 521 523 0
524 -521 0
-525 0
526 -525 0
-526 525 0
527 -526 0
-527 526 0
528 -527 0
-528 524 527 0
528 -524 0
-529 518 0
529 -518 -528 0
-529 528 0
-530 515 0
530 -515 529 0
-530 -529 0
531 -529 0
-531 516 529 0
531 -516 0
-532 530 0
532 -530 531 0
-532 -531 0
533 -450 532 0
533 -458 -532 0
-533 450 532 0
-533 458 -532 0
534 -451 532 0
534 -459 -532 0
-534 451 532 0
-534 459 -532 0
535 -452 532 0
535 -460 -532 0
-535 452 532 0
-535 460 -532 0
536 -453 532 0
536 -461 -532 0
-536 453 532 0
-536 461 -532 0
537 -458 532 0
537 -450 -532 0
-537 458 532 0
-537 450 -532 0
538 -459 532 0
538 -451 -532 0
-538 459 532 0
-538 451 -532 0
539 -460 532 0
539 -452 -532 0
-539 460 532 0
-539 452 -532 0
540 -461 532 0
540 -453 -532 0
-540 461 532 0
-540 453 -532 0
541 530 0
-541 -530 0
-542 531 0
542 -531 -541 0
-542 541 0
543 542 0
-543 -542 0
544 -533 543 0
544 -462 -543 0
-544 533 543 0
-544 462 -543 0
545 -534 543 0
545 -463 -543 0
-545 534 543 0
-545 463 -543 0
546 -535 543 0
546 -464 -543 0
-546 535 543 0
-546 464 -543 0
547 -536 543 0
547 -465 -543 0
-547 536 543 0
-547 465 -543 0
548 -462 543 0
548 -533 -543 0
-548 462 543 0
-548 533 -543 0
549 -463 543 0
549 -534 -543 0
-549 463 543 0
-549 534 -543 0
550 -464 543 0
550 -535 -543 0
-550 464 543 0
-550 535 -543 0
551 -465 543 0
551 -536 -543 0
-551 465 543 0
-551 536 -543 0
552 -537 0
-552 537 0
553 -538 0
-553 538 0
554 -539 0
-554 539 0
555 -540 0
-555 540 0
556 547 -555 0
-556 555 0
-556 -547 0
-557 554 0
557 546 547 -554 555 0
-557 547 -555 0
557 546 -547 -554 -555 0
-557 -547 555 0
-557 -546 0
558 -557 0
-558 556 557 0
558 -556 0
-559 553 0
559 545 547 -553 555 0
-559 547 -555 0
559 545 -547 -553 -555 0
-559 -547 555 0
-559 -545 0
560 546 554 -559 0
-560 559 0
-560 546 -554 0
-560 -546 554 0
560 -546 -554 -559 0
561 -560 0
-561 558 560 0
561 -558 0
-562 552 0
562 544 547 -552 555 0
-562 547 -555 0
562 544 -547 -552 -555 0
-562 -547 555 0
-562 -544 0
563 546 554 -562 0
-563 562 0
-563 546 -554 0
-563 -546 554 0
563 -546 -554 -562 0
564 545 553 -563 0
-564 563 0
-564 545 -553 0
-564 -545 553 0
564 -545 -553 -563 0
565 -564 0
-565 561 564 0
565 -561 0
-566 565 0
566 -565 0
-567 0
-568 0
569 -568 0
-569 567 568 0
569 -567 0
-570 0
571 -570 0
-571 570 0
572 -571 0
-572 569 571 0
572 -569 0
-573 0
574 -573 0
-574 573 0
575 -574 0
-575 574 0
576 -575 0
-576 572 575 0
576 -572 0
-577 566 0
577 -566 -576 0
-577 576 0
578 -577 0
-578 566 577 0
578 -566 0
579 578 0
-579 -578 0
580 -544 579 0
580 -552 -579 0
-580 544 579 0
-580 552 -579 0
581 -545 579 0
581 -553 -579 0
-581 545 579 0
-581 553 -579 0
582 -546 579 0
582 -554 -579 0
-582 546 579 0
-582 554 -579 0
583 -547 579 0
583 -555 -579 0
-583 547 579 0
-583 555 -579 0
584 -552 579 0
584 -544 -579 0
-584 552 579 0
-584 544 -579 0
585 -553 579 0
585 -545 -579 0
-585 553 579 0
-585 545 -579 0
586 -554 579 0
586 -546 -579 0
-586 554 579 0
-586 546 -579 0
587 -555 579 0
587 -547 -579 0
-587 555 579 0
-587 547 -579 0
588 200 -580 0
588 -200 580 0
-588 200 580 0
-588 -200 -580 0
589 201 -581 0
589 -201 581 0
-589 201 581 0
-589 -201 -581 0
590 202 -582 0
590 -202 582 0
-590 202 582 0
-590 -202 -582 0
591 203 -583 0
591 -203 583 0
-591 203 583 0
-591 -203 -583 0
592 308 -584 0
592 -308 584 0
-592 308 584 0
-592 -308 -584 0
593 309 -585 0
593 -309 585 0
-593 309 585 0
-593 -309 -585 0
594 310 -586 0
594 -310 586 0
-594 310 586 0
-594 -310 -586 0
595 311 -587 0
595 -311 587 0
-595 311 587 0
-595 -311 -587 0
596 349 -548 0
596 -349 548 0
-596 349 548 0
-596 -349 -548 0
597 350 -549 0
597 -350 549 0
-597 350 549 0
-597 -350 -549 0
598 351 -550 0
598 -351 550 0
-598 351 550 0
-598 -351 -550 0
599 352 -551 0
599 -352 551 0
-599 352 551 0
-599 -352 -551 0
600 353 -454 0
600 -353 454 0
-600 353 454 0
-600 -353 -454 0
601 354 -455 0
601 -354 455 0
-601 354 455 0
-601 -354 -455 0
602 355 -456 0
602 -355 456 0
-602 355 456 0
-602 -355 -456 0
603 356 -457 0
603 -356 457 0
-603 356 457 0
-603 -356 -457 0
604 -591 0
-604 588 589 590 591 0
604 -590 0
604 -589 0
604 -588 0
605 -595 0
-605 592 593 594 595 0
605 -594 0
605 -593 0
605 -592 0
606 -599 0
-606 596 597 598 599 0
606 -598 0
606 -597 0
606 -596 0
607 -603 0
-607 600 601 602 603 0
607 -602 0
607 -601 0
607 -600 0
608 -607 0
-608 604 605 606 607 0
608 -606 0
608 -605 0
608 -604 0
608 0
